#p UB3LYP/6-31g* force 

Gaussian input prepared by ASE

0 1
H                 0.0000000000        0.0000000000        0.0000000000
H                 1.0000000000        1.0000000000        1.0000000000



